Geographic Exponential Decay
80 287 61 84 283 110 56 311 298 70 176 279 183 51 288 57 188 186 308 249 276 65 144 115 168 8 264 69 181 130 55 291 6 169 244 24 78 198 7 121 174 92 95 86 224 54 230 147 5 160 96 219 150 317 260 148 58 316 156 245 154 210 215 132 305 165 223 75 254 125 278 81 292 243 218 309 99 187 18 139 164
p edge 320 321
e 0 273 6.0
e 1 44 9.0
e 1 0 3.0
e 2 156 27.0
e 2 1 7.0
e 3 224 49.0
e 3 2 6.0
e 4 161 1.0
e 4 3 1.0
e 5 119 30.0
e 5 60 33.0
e 5 315 55.0
e 5 4 49.0
e 6 195 28.0
e 6 291 93.0
e 6 157 47.0
e 6 5 48.0
e 7 303 22.0
e 7 296 27.0
e 7 18 89.0
e 7 6 83.0
e 8 42 45.0
e 8 216 21.0
e 8 51 31.0
e 8 7 27.0
e 9 10 3.0
e 9 8 97.0
e 11 141 8.0
e 11 9 1.0
e 12 27 1.0
e 12 11 1.0
e 13 189 2.0
e 13 12 1.0
e 14 291 46.0
e 15 90 3.0
e 15 13 1.0
e 16 241 1.0
e 16 15 1.0
e 17 67 2.0
e 17 16 1.0
e 18 143 10.0
e 18 105 69.0
e 19 120 1.0
e 19 17 2.0
e 20 290 1.0
e 20 19 4.0
e 21 94 1.0
e 21 20 10.0
e 22 121 28.0
e 23 308 63.0
e 23 21 13.0
e 24 193 89.0
e 24 140 1.0
e 24 108 52.0
e 24 23 90.0
e 25 144 65.0
e 25 24 96.0
e 26 103 4.0
e 26 25 5.0
e 28 130 75.0
e 28 69 58.0
e 28 26 39.0
e 29 256 11.0
e 29 28 38.0
e 30 31 2.0
e 30 29 9.0
e 32 85 1.0
e 32 30 2.0
e 33 175 2.0
e 33 32 1.0
e 34 115 46.0
e 34 33 2.0
e 35 225 1.0
e 35 34 11.0
e 36 50 1.0
e 36 35 1.0
e 37 171 5.0
e 37 36 2.0
e 38 149 2.0
e 38 37 6.0
e 39 40 2.0
e 39 38 1.0
e 41 146 1.0
e 41 39 1.0
e 43 148 54.0
e 45 46 3.0
e 45 41 1.0
e 47 48 5.0
e 47 45 1.0
e 49 51 41.0
e 51 92 92.0
e 52 142 4.0
e 52 47 1.0
e 53 144 79.0
e 54 262 40.0
e 54 134 96.0
e 54 211 41.0
e 54 52 16.0
e 55 258 65.0
e 55 264 88.0
e 55 68 18.0
e 55 54 17.0
e 56 57 89.0
e 56 187 32.0
e 56 139 25.0
e 57 289 64.0
e 57 274 76.0
e 58 158 68.0
e 58 196 99.0
e 58 109 6.0
e 58 55 93.0
e 59 61 52.0
e 59 58 94.0
e 61 245 35.0
e 61 106 26.0
e 62 63 1.0
e 62 59 2.0
e 64 159 10.0
e 64 62 24.0
e 65 165 21.0
e 65 230 90.0
e 65 198 24.0
e 66 136 1.0
e 66 64 2.0
e 69 70 45.0
e 69 206 79.0
e 70 214 68.0
e 70 151 31.0
e 71 125 43.0
e 71 66 1.0
e 72 259 1.0
e 72 71 1.0
e 73 285 1.0
e 73 72 9.0
e 74 207 8.0
e 74 73 1.0
e 75 242 51.0
e 75 203 84.0
e 75 176 95.0
e 75 74 16.0
e 76 244 82.0
e 77 208 1.0
e 77 75 57.0
e 78 99 81.0
e 78 312 14.0
e 78 138 99.0
e 79 275 21.0
e 79 77 14.0
e 80 276 65.0
e 81 82 99.0
e 81 270 71.0
e 81 83 84.0
e 81 79 22.0
e 84 160 92.0
e 84 86 85.0
e 84 152 82.0
e 86 87 17.0
e 86 88 74.0
e 89 91 2.0
e 89 81 79.0
e 92 93 43.0
e 92 255 63.0
e 95 286 10.0
e 95 96 7.0
e 95 267 48.0
e 96 129 26.0
e 96 288 11.0
e 97 98 1.0
e 97 89 2.0
e 99 115 37.0
e 99 124 45.0
e 100 101 1.0
e 100 97 4.0
e 102 297 3.0
e 102 100 1.0
e 104 178 1.0
e 104 102 2.0
e 107 204 4.0
e 107 104 3.0
e 110 128 6.0
e 110 111 92.0
e 110 177 100.0
e 110 107 62.0
e 112 254 100.0
e 112 110 56.0
e 113 280 2.0
e 113 112 1.0
e 114 132 99.0
e 114 113 1.0
e 115 199 33.0
e 116 176 96.0
e 117 282 7.0
e 117 114 8.0
e 118 121 65.0
e 121 283 80.0
e 122 287 89.0
e 123 125 1.0
e 125 126 69.0
e 127 160 92.0
e 130 238 62.0
e 130 131 29.0
e 132 133 28.0
e 132 135 87.0
e 137 294 2.0
e 137 117 1.0
e 139 144 16.0
e 139 145 93.0
e 147 279 31.0
e 147 269 28.0
e 147 148 67.0
e 148 231 8.0
e 150 276 91.0
e 150 168 59.0
e 150 153 20.0
e 154 166 77.0
e 154 155 31.0
e 154 227 23.0
e 154 137 79.0
e 156 160 85.0
e 156 162 74.0
e 163 306 1.0
e 163 154 39.0
e 164 240 1.0
e 164 165 6.0
e 164 167 30.0
e 165 168 85.0
e 168 209 87.0
e 169 283 5.0
e 169 284 47.0
e 169 170 47.0
e 172 265 7.0
e 172 163 4.0
e 173 174 61.0
e 174 190 81.0
e 174 176 67.0
e 179 180 2.0
e 179 181 2.0
e 179 172 14.0
e 181 182 99.0
e 181 183 15.0
e 183 184 65.0
e 183 239 63.0
e 185 277 10.0
e 185 179 48.0
e 186 228 51.0
e 186 187 76.0
e 186 188 80.0
e 187 188 32.0
e 188 304 6.0
e 191 192 4.0
e 191 185 2.0
e 194 197 2.0
e 194 191 2.0
e 198 200 52.0
e 198 302 4.0
e 201 202 1.0
e 201 194 2.0
e 205 210 84.0
e 210 264 81.0
e 210 268 51.0
e 212 236 1.0
e 212 201 1.0
e 213 215 85.0
e 213 212 1.0
e 215 217 11.0
e 215 218 11.0
e 218 219 71.0
e 218 220 6.0
e 219 221 88.0
e 219 263 45.0
e 222 223 79.0
e 223 224 18.0
e 223 248 26.0
e 224 226 78.0
e 229 230 34.0
e 230 281 67.0
e 232 233 30.0
e 232 213 1.0
e 233 234 44.0
e 235 257 1.0
e 235 232 13.0
e 237 243 5.0
e 243 244 16.0
e 243 245 30.0
e 244 276 2.0
e 245 246 21.0
e 247 253 1.0
e 247 235 23.0
e 249 250 32.0
e 249 251 67.0
e 249 252 14.0
e 249 247 40.0
e 254 272 31.0
e 254 301 60.0
e 260 261 7.0
e 260 264 8.0
e 260 266 7.0
e 271 278 3.0
e 278 279 33.0
e 278 283 66.0
e 279 287 49.0
e 287 288 41.0
e 288 291 50.0
e 292 293 60.0
e 292 295 34.0
e 292 298 24.0
e 292 249 39.0
e 298 299 39.0
e 298 300 47.0
e 305 307 47.0
e 305 308 38.0
e 305 309 68.0
e 308 309 83.0
e 309 310 11.0
e 311 313 84.0
e 311 314 2.0
e 311 316 100.0
e 311 292 29.0
e 316 317 57.0
e 316 318 33.0
e 317 319 42.0
